(set-info :smt-lib-version 2.6)
(set-logic UFNIRA)
(set-info :source |
Generated by: Geoff Sutcliffe
Generated on: 2026-03-11
Generator: TPTPWorld
Application: Benchmarking automated theorem provers
Time limit: 120.0

These benchmarks are translations from the TPTP Library (Thousands of
Problems for Theorem Provers), see http://www.cs.miami.edu/~tptp/

The TPTP is maintained by Geoff Sutcliffe, and he contributed this
selection of benchmarks to SMT-LIB.  They were exported from the
v9.2.1 realease of TPTP.
|)
(set-info :category "industrial")
(set-info :status "unknown")
; SZS status Success
(declare-sort $$unsorted 0)
(declare-sort tptp.uni 0)
(declare-sort tptp.ty 0)
(declare-fun tptp.sort (tptp.ty tptp.uni) Bool)
(declare-fun tptp.witness (tptp.ty) tptp.uni)
(assert (forall ((A tptp.ty)) (tptp.sort A (tptp.witness A))))
(declare-fun tptp.int () tptp.ty)
(declare-fun tptp.real () tptp.ty)
(declare-sort tptp.bool 0)
(declare-fun tptp.bool1 () tptp.ty)
(declare-fun tptp.true () tptp.bool)
(declare-fun tptp.false () tptp.bool)
(declare-fun tptp.match_bool (tptp.ty tptp.bool tptp.uni tptp.uni) tptp.uni)
(assert (forall ((A tptp.ty) (X tptp.bool) (X1 tptp.uni) (X2 tptp.uni)) (tptp.sort A (tptp.match_bool A X X1 X2))))
(assert (forall ((A tptp.ty) (Z tptp.uni) (Z1 tptp.uni)) (=> (tptp.sort A Z) (= (tptp.match_bool A tptp.true Z Z1) Z))))
(assert (forall ((A tptp.ty) (Z tptp.uni) (Z1 tptp.uni)) (=> (tptp.sort A Z1) (= (tptp.match_bool A tptp.false Z Z1) Z1))))
(assert (not (= tptp.true tptp.false)))
(assert (forall ((U tptp.bool)) (or (= U tptp.true) (= U tptp.false))))
(declare-sort tptp.tuple0 0)
(declare-fun tptp.tuple01 () tptp.ty)
(declare-fun tptp.tuple02 () tptp.tuple0)
(assert (forall ((U tptp.tuple0)) (= U tptp.tuple02)))
(declare-fun tptp.qtmark () tptp.ty)
(assert (forall ((X Int) (Y Int) (Z Int)) (=> (<= X Y) (=> (<= 0 Z) (<= (* X Z) (* Y Z))))))
(declare-fun tptp.abs (Int) Int)
(assert (forall ((X Int)) (let ((_let_1 (tptp.abs X))) (let ((_let_2 (<= 0 X))) (and (=> _let_2 (= _let_1 X)) (=> (not _let_2) (= _let_1 (- X))))))))
(assert (forall ((X Int) (Y Int)) (= (<= (tptp.abs X) Y) (and (<= (- Y) X) (<= X Y)))))
(assert (forall ((X Int)) (<= 0 (tptp.abs X))))
(declare-fun tptp.div (Int Int) Int)
(declare-fun tptp.mod (Int Int) Int)
(assert (forall ((X Int) (Y Int)) (=> (not (= Y 0)) (= X (+ (* Y (tptp.div X Y)) (tptp.mod X Y))))))
(assert (forall ((X Int) (Y Int)) (let ((_let_1 (tptp.div X Y))) (=> (and (<= 0 X) (< 0 Y)) (and (<= 0 _let_1) (<= _let_1 X))))))
(assert (forall ((X Int) (Y Int)) (let ((_let_1 (tptp.abs Y))) (let ((_let_2 (tptp.mod X Y))) (=> (not (= Y 0)) (and (< (- _let_1) _let_2) (< _let_2 _let_1)))))))
(assert (forall ((X Int) (Y Int)) (=> (and (<= 0 X) (< 0 Y)) (<= 0 (tptp.div X Y)))))
(assert (forall ((X Int) (Y Int)) (=> (and (<= X 0) (< 0 Y)) (<= (tptp.div X Y) 0))))
(assert (forall ((X Int) (Y Int)) (=> (and (<= 0 X) (not (= Y 0))) (<= 0 (tptp.mod X Y)))))
(assert (forall ((X Int) (Y Int)) (=> (and (<= X 0) (not (= Y 0))) (<= (tptp.mod X Y) 0))))
(assert (forall ((X Int) (Y Int)) (=> (not (= Y 0)) (<= (tptp.abs (* (tptp.div X Y) Y)) (tptp.abs X)))))
(assert (forall ((X Int)) (= (tptp.div X 1) X)))
(assert (forall ((X Int)) (= (tptp.mod X 1) 0)))
(assert (forall ((X Int) (Y Int)) (=> (and (<= 0 X) (< X Y)) (= (tptp.div X Y) 0))))
(assert (forall ((X Int) (Y Int)) (=> (and (<= 0 X) (< X Y)) (= (tptp.mod X Y) X))))
(assert (forall ((X Int) (Y Int) (Z Int)) (=> (and (< 0 X) (<= 0 Y) (<= 0 Z)) (= (tptp.div (+ (* X Y) Z) X) (+ Y (tptp.div Z X))))))
(assert (forall ((X Int) (Y Int) (Z Int)) (=> (and (< 0 X) (<= 0 Y) (<= 0 Z)) (= (tptp.mod (+ (* X Y) Z) X) (tptp.mod Z X)))))
(declare-fun tptp.divides (Int Int) Bool)
(assert (forall ((D Int) (N Int)) (= (tptp.divides D N) (exists ((Q Int)) (= N (* Q D))))))
(assert (forall ((N Int)) (tptp.divides N N)))
(assert (forall ((N Int)) (tptp.divides 1 N)))
(assert (forall ((N Int)) (tptp.divides N 0)))
(assert (forall ((A Int) (B Int) (C Int)) (=> (tptp.divides A B) (tptp.divides (* C A) (* C B)))))
(assert (forall ((A Int) (B Int) (C Int)) (=> (tptp.divides A B) (tptp.divides (* A C) (* B C)))))
(assert (forall ((A Int) (B Int)) (=> (tptp.divides A B) (tptp.divides A (- B)))))
(assert (forall ((A Int) (B Int)) (=> (tptp.divides A B) (tptp.divides (- A) B))))
(assert (forall ((A Int) (B Int)) (=> (tptp.divides (- A) B) (tptp.divides A B))))
(assert (forall ((A Int) (B Int)) (=> (tptp.divides A (- B)) (tptp.divides A B))))
(assert (forall ((A Int) (B Int) (C Int)) (=> (tptp.divides A B) (=> (tptp.divides A C) (tptp.divides A (+ B C))))))
(assert (forall ((A Int) (B Int) (C Int)) (=> (tptp.divides A B) (=> (tptp.divides A C) (tptp.divides A (- B C))))))
(assert (forall ((A Int) (B Int) (C Int)) (=> (tptp.divides A B) (tptp.divides A (* C B)))))
(assert (forall ((A Int) (B Int) (C Int)) (=> (tptp.divides A B) (tptp.divides A (* B C)))))
(assert (forall ((A Int) (B Int)) (tptp.divides A (* B A))))
(assert (forall ((A Int) (B Int)) (tptp.divides A (* A B))))
(assert (forall ((N Int)) (=> (tptp.divides N 1) (or (= N 1) (= N (- 1))))))
(assert (forall ((A Int) (B Int)) (=> (tptp.divides A B) (=> (tptp.divides B A) (or (= A B) (= A (- B)))))))
(assert (forall ((A Int) (B Int) (C Int)) (=> (tptp.divides A B) (=> (tptp.divides B C) (tptp.divides A C)))))
(assert (forall ((A Int) (B Int)) (=> (tptp.divides A B) (=> (not (= B 0)) (<= (tptp.abs A) (tptp.abs B))))))
(assert (forall ((X Int) (Y Int) (Z Int)) (let ((_let_1 (to_real X))) (let ((_let_2 (/ (to_real Z) _let_1))) (let ((_let_3 (>= _let_1 0.0))) (let ((_let_4 (/ (to_real (+ (* X Y) Z)) _let_1))) (=> (< 0 X) (= (ite _let_3 (to_int _let_4) (- (to_int (- _let_4)))) (+ Y (ite _let_3 (to_int _let_2) (- (to_int (- _let_2)))))))))))))
(assert (forall ((X Int) (Y Int) (Z Int)) (let ((_let_1 (to_real X))) (let ((_let_2 (to_real Z))) (let ((_let_3 (/ _let_2 _let_1))) (let ((_let_4 (>= _let_1 0.0))) (let ((_let_5 (to_real (+ (* X Y) Z)))) (let ((_let_6 (/ _let_5 _let_1))) (=> (< 0 X) (= (to_int (- _let_5 (* (ite _let_4 (to_int _let_6) (- (to_int (- _let_6)))) _let_1))) (to_int (- _let_2 (* (ite _let_4 (to_int _let_3) (- (to_int (- _let_3)))) _let_1)))))))))))))
(assert (forall ((A Int) (B Int)) (let ((_let_1 (to_real B))) (let ((_let_2 (to_real A))) (let ((_let_3 (/ _let_2 _let_1))) (=> (not (= B 0)) (=> (= (to_int (- _let_2 (* (ite (>= _let_1 0.0) (to_int _let_3) (- (to_int (- _let_3)))) _let_1))) 0) (tptp.divides B A))))))))
(assert (forall ((A Int) (B Int)) (let ((_let_1 (to_real B))) (let ((_let_2 (to_real A))) (let ((_let_3 (/ _let_2 _let_1))) (=> (not (= B 0)) (=> (tptp.divides B A) (= (to_int (- _let_2 (* (ite (>= _let_1 0.0) (to_int _let_3) (- (to_int (- _let_3)))) _let_1))) 0))))))))
(assert (forall ((A Int) (B Int)) (=> (not (= B 0)) (=> (= (tptp.mod A B) 0) (tptp.divides B A)))))
(assert (forall ((A Int) (B Int)) (=> (not (= B 0)) (=> (tptp.divides B A) (= (tptp.mod A B) 0)))))
(declare-fun tptp.even (Int) Bool)
(assert (forall ((N Int)) (= (tptp.even N) (exists ((K Int)) (= N (* 2 K))))))
(declare-fun tptp.odd (Int) Bool)
(assert (forall ((N Int)) (= (tptp.odd N) (exists ((K Int)) (= N (+ (* 2 K) 1))))))
(assert (forall ((N Int)) (or (tptp.even N) (tptp.odd N))))
(assert (forall ((N Int)) (=> (tptp.even N) (not (tptp.odd N)))))
(assert (forall ((N Int)) (=> (tptp.odd N) (not (tptp.even N)))))
(assert (forall ((N Int)) (=> (tptp.even N) (tptp.odd (+ N 1)))))
(assert (forall ((N Int)) (=> (tptp.odd N) (tptp.even (+ N 1)))))
(assert (forall ((N Int)) (=> (tptp.even N) (tptp.even (+ N 2)))))
(assert (forall ((N Int)) (=> (tptp.odd N) (tptp.odd (+ N 2)))))
(assert (forall ((K Int)) (tptp.even (* 2 K))))
(assert (forall ((K Int)) (tptp.odd (+ (* 2 K) 1))))
(assert (forall ((A Int)) (= (tptp.even A) (tptp.divides 2 A))))
(assert (forall ((A Int)) (= (tptp.odd A) (not (tptp.divides 2 A)))))
(declare-fun tptp.prime (Int) Bool)
(assert (forall ((P Int)) (= (tptp.prime P) (and (<= 2 P) (forall ((N Int)) (=> (and (< 1 N) (< N P)) (not (tptp.divides N P))))))))
(assert (not (tptp.prime 1)))
(assert (tptp.prime 2))
(assert (tptp.prime 3))
(assert (forall ((P Int)) (=> (tptp.prime P) (forall ((D Int)) (=> (tptp.divides D P) (or (= D 1) (= D (- 1)) (= D P) (= D (- P))))))))
(assert (forall ((P Int)) (=> (<= 2 P) (=> (forall ((D Int)) (let ((_let_1 (* D D))) (=> (<= 2 D) (=> (tptp.prime D) (=> (and (< 1 _let_1) (<= _let_1 P)) (not (tptp.divides D P))))))) (tptp.prime P)))))
(assert (forall ((P Int)) (=> (tptp.prime P) (=> (tptp.even P) (= P 2)))))
(assert (forall ((P Int)) (=> (tptp.prime P) (=> (<= 3 P) (tptp.odd P)))))
(declare-fun tptp.gcd (Int Int) Int)
(assert (forall ((A Int) (B Int)) (<= 0 (tptp.gcd A B))))
(assert (forall ((A Int) (B Int)) (tptp.divides (tptp.gcd A B) A)))
(assert (forall ((A Int) (B Int)) (tptp.divides (tptp.gcd A B) B)))
(assert (forall ((A Int) (B Int) (X Int)) (=> (tptp.divides X A) (=> (tptp.divides X B) (tptp.divides X (tptp.gcd A B))))))
(assert (forall ((A Int) (B Int) (D Int)) (=> (<= 0 D) (=> (tptp.divides D A) (=> (tptp.divides D B) (=> (forall ((X Int)) (=> (tptp.divides X A) (=> (tptp.divides X B) (tptp.divides X D)))) (= D (tptp.gcd A B))))))))
(assert (forall ((X Int) (Y Int) (Z Int)) (= (tptp.gcd (tptp.gcd X Y) Z) (tptp.gcd X (tptp.gcd Y Z)))))
(assert (forall ((X Int) (Y Int)) (= (tptp.gcd X Y) (tptp.gcd Y X))))
(assert (forall ((A Int)) (=> (<= 0 A) (= (tptp.gcd A 0) A))))
(assert (forall ((A Int)) (=> (< A 0) (= (tptp.gcd A 0) (- A)))))
(assert (forall ((A Int) (B Int)) (= (tptp.gcd A B) (tptp.gcd (- A) B))))
(assert (forall ((A Int) (B Int) (Q Int)) (= (tptp.gcd A B) (tptp.gcd A (- B (* Q A))))))
(assert (forall ((A Int) (B Int)) (=> (not (= B 0)) (= (tptp.gcd B (tptp.mod A B)) (tptp.gcd A B)))))
(assert (forall ((A Int) (B Int)) (let ((_let_1 (to_real B))) (let ((_let_2 (to_real A))) (let ((_let_3 (/ _let_2 _let_1))) (=> (not (= B 0)) (= (tptp.gcd B (to_int (- _let_2 (* (ite (>= _let_1 0.0) (to_int _let_3) (- (to_int (- _let_3)))) _let_1)))) (tptp.gcd A B))))))))
(assert (forall ((A Int) (B Int) (C Int)) (=> (<= 0 C) (= (tptp.gcd (* C A) (* C B)) (* C (tptp.gcd A B))))))
(declare-fun tptp.coprime (Int Int) Bool)
(assert (forall ((A Int) (B Int)) (= (tptp.coprime A B) (= (tptp.gcd A B) 1))))
(assert (forall ((P Int)) (= (tptp.prime P) (and (<= 2 P) (forall ((N Int)) (=> (and (<= 1 N) (< N P)) (tptp.coprime N P)))))))
(assert (forall ((A Int) (B Int) (C Int)) (=> (and (tptp.divides A (* B C)) (tptp.coprime A B)) (tptp.divides A C))))
(assert (forall ((P Int) (A Int) (B Int)) (=> (and (tptp.prime P) (tptp.divides P (* A B))) (or (tptp.divides P A) (tptp.divides P B)))))
(assert (forall ((A Int) (B Int) (C Int)) (=> (tptp.coprime A B) (= (tptp.gcd A (* B C)) (tptp.gcd A C)))))
(declare-fun tptp.ref (tptp.ty) tptp.ty)
(declare-fun tptp.mk_ref (tptp.ty tptp.uni) tptp.uni)
(assert (forall ((A tptp.ty) (X tptp.uni)) (tptp.sort (tptp.ref A) (tptp.mk_ref A X))))
(declare-fun tptp.contents (tptp.ty tptp.uni) tptp.uni)
(assert (forall ((A tptp.ty) (X tptp.uni)) (tptp.sort A (tptp.contents A X))))
(assert (forall ((A tptp.ty) (U tptp.uni)) (=> (tptp.sort A U) (= (tptp.contents A (tptp.mk_ref A U)) U))))
(assert (forall ((A tptp.ty) (U tptp.uni)) (=> (tptp.sort (tptp.ref A) U) (= U (tptp.mk_ref A (tptp.contents A U))))))
(declare-fun tptp.list (tptp.ty) tptp.ty)
(declare-fun tptp.nil (tptp.ty) tptp.uni)
(assert (forall ((A tptp.ty)) (tptp.sort (tptp.list A) (tptp.nil A))))
(declare-fun tptp.cons (tptp.ty tptp.uni tptp.uni) tptp.uni)
(assert (forall ((A tptp.ty) (X tptp.uni) (X1 tptp.uni)) (tptp.sort (tptp.list A) (tptp.cons A X X1))))
(declare-fun tptp.match_list (tptp.ty tptp.ty tptp.uni tptp.uni tptp.uni) tptp.uni)
(assert (forall ((A tptp.ty) (A1 tptp.ty) (X tptp.uni) (X1 tptp.uni) (X2 tptp.uni)) (tptp.sort A1 (tptp.match_list A1 A X X1 X2))))
(assert (forall ((A tptp.ty) (A1 tptp.ty) (Z tptp.uni) (Z1 tptp.uni)) (=> (tptp.sort A1 Z) (= (tptp.match_list A1 A (tptp.nil A) Z Z1) Z))))
(assert (forall ((A tptp.ty) (A1 tptp.ty) (Z tptp.uni) (Z1 tptp.uni) (U tptp.uni) (U1 tptp.uni)) (=> (tptp.sort A1 Z1) (= (tptp.match_list A1 A (tptp.cons A U U1) Z Z1) Z1))))
(assert (forall ((A tptp.ty) (V tptp.uni) (V1 tptp.uni)) (not (= (tptp.nil A) (tptp.cons A V V1)))))
(declare-fun tptp.cons_proj_1 (tptp.ty tptp.uni) tptp.uni)
(assert (forall ((A tptp.ty) (X tptp.uni)) (tptp.sort A (tptp.cons_proj_1 A X))))
(assert (forall ((A tptp.ty) (U tptp.uni) (U1 tptp.uni)) (=> (tptp.sort A U) (= (tptp.cons_proj_1 A (tptp.cons A U U1)) U))))
(declare-fun tptp.cons_proj_2 (tptp.ty tptp.uni) tptp.uni)
(assert (forall ((A tptp.ty) (X tptp.uni)) (tptp.sort (tptp.list A) (tptp.cons_proj_2 A X))))
(assert (forall ((A tptp.ty) (U tptp.uni) (U1 tptp.uni)) (= (tptp.cons_proj_2 A (tptp.cons A U U1)) U1)))
(assert (forall ((A tptp.ty) (U tptp.uni)) (or (= U (tptp.nil A)) (= U (tptp.cons A (tptp.cons_proj_1 A U) (tptp.cons_proj_2 A U))))))
(declare-sort tptp.list_int 0)
(declare-fun tptp.t2tb (tptp.list_int) tptp.uni)
(assert (forall ((X tptp.list_int)) (tptp.sort (tptp.list tptp.int) (tptp.t2tb X))))
(declare-fun tptp.tb2t (tptp.uni) tptp.list_int)
(assert (forall ((I tptp.list_int)) (= (tptp.tb2t (tptp.t2tb I)) I)))
(assert (forall ((J tptp.uni)) (= (tptp.t2tb (tptp.tb2t J)) J)))
(declare-fun tptp.t2tb1 (Int) tptp.uni)
(assert (forall ((X Int)) (tptp.sort tptp.int (tptp.t2tb1 X))))
(declare-fun tptp.tb2t1 (tptp.uni) Int)
(assert (forall ((I Int)) (= (tptp.tb2t1 (tptp.t2tb1 I)) I)))
(assert (forall ((J tptp.uni)) (= (tptp.t2tb1 (tptp.tb2t1 J)) J)))
(assert (not (forall ((N Int)) (let ((_let_1 (<= 2 N))) (=> _let_1 (=> (and _let_1 (<= 2 2) _let_1 (forall ((I Int)) (=> (and (<= 2 I) (< I 2)) (not (tptp.divides I N))))) (forall ((D Int)) (=> (and (<= 2 D) (<= D N) (tptp.divides D N) (forall ((I Int)) (=> (and (<= 2 I) (< I D)) (not (tptp.divides I N))))) (forall ((Factors tptp.list_int)) (let ((_let_1 (tptp.div N D))) (=> (= Factors (tptp.tb2t (tptp.cons tptp.int (tptp.t2tb1 D) (tptp.nil tptp.int)))) (=> (and (= (* _let_1 D) N) (tptp.divides _let_1 N)) (=> (forall ((I Int)) (=> (and (tptp.prime I) (tptp.divides I N) (< D I)) (and (tptp.coprime D I) (tptp.divides I (tptp.div N D))))) (forall ((Target Int) (Factor Int) (Factors1 tptp.list_int)) (let ((_let_1 (<= Factor Target))) (let ((_let_2 (<= 2 Factor))) (let ((_let_3 (<= 2 Target))) (=> (and (<= 1 Target) (<= Target N) _let_2 (<= Factor N) (tptp.divides Factor N) (tptp.prime Factor) (forall ((I Int)) (=> (and (tptp.divides I Target) (<= 2 I)) (and (<= Factor I) (tptp.divides I N)))) (forall ((I Int)) (=> (and (tptp.prime I) (tptp.divides I N) (< Factor I)) (tptp.divides I Target)))) (=> _let_3 (=> (and (tptp.divides Target Target) _let_3 _let_1) (=> (and _let_3 _let_2 _let_1 (forall ((I Int)) (=> (and (<= 2 I) (< I Factor)) (not (tptp.divides I Target))))) (forall ((D1 Int)) (=> (and (<= Factor D1) (<= D1 Target) (tptp.divides D1 Target) (forall ((I Int)) (=> (and (<= 2 I) (< I D1)) (not (tptp.divides I Target))))) (=> (tptp.prime D1) (forall ((Factor1 Int)) (=> (= Factor1 D1) (forall ((Factors2 tptp.list_int)) (=> (= Factors2 (tptp.tb2t (tptp.cons tptp.int (tptp.t2tb1 D1) (tptp.t2tb Factors1)))) (forall ((Target1 Int)) (=> (= Target1 (tptp.div Target D1)) (=> (and (= (* Target1 D1) Target) (tptp.divides Target1 Target)) (forall ((I Int)) (let ((_let_1 (< D1 I))) (=> (and (tptp.prime I) (tptp.divides I N) _let_1) (=> (< Factor I) (=> (tptp.divides I Target) (=> (and (<= 1 D1) _let_1) (tptp.coprime D1 I))))))))))))))))))))))))))))))))))))))
(check-sat)
